p cnf 60 204
-3 2 0
-3 1 0
-2 -1 3 0
-4 -1 0
-4 -3 0
1 3 4 0
7 5 0
7 6 0
-5 -6 -7 0
-8 -4 0
-8 -7 0
4 7 8 0
-10 2 0
-10 9 0
-2 -9 10 0
-12 11 0
-12 -11 0
-4 12 -13 0
4 -12 -13 0
-4 -12 13 0
4 12 13 0
-10 13 -14 0
10 -13 -14 0
-10 -13 14 0
10 13 14 0
15 8 0
15 -14 0
-8 14 -15 0
17 16 0
17 11 0
-16 -11 -17 0
-17 -18 -19 0
17 18 -19 0
-17 18 19 0
17 -18 19 0
-20 -17 0
-20 -19 0
17 19 20 0
21 -20 0
21 -3 0
20 3 -21 0
-22 -6 0
-22 -9 0
6 9 22 0
-17 -5 -23 0
17 5 -23 0
-17 5 23 0
17 -5 23 0
-24 -23 0
-24 23 0
-22 24 -25 0
22 -24 -25 0
-22 -24 25 0
22 24 25 0
-26 21 0
-26 25 0
-21 -25 26 0
-27 -6 0
-27 -7 0
6 7 27 0
28 -27 0
28 22 0
27 -22 -28 0
-26 -28 -29 0
26 28 -29 0
-26 28 29 0
26 -28 29 0
-30 15 0
-30 29 0
-15 -29 30 0
-31 -23 0
-31 -17 0
23 17 31 0
32 16 0
32 5 0
-16 -5 -32 0
-33 -17 0
-33 -32 0
17 32 33 0
35 34 0
35 13 0
-34 -13 -35 0
-36 33 0
-36 -35 0
-33 35 36 0
-37 3 0
-37 34 0
-3 -34 37 0
38 -9 0
38 -37 0
9 37 -38 0
39 -36 0
39 38 0
36 -38 -39 0
-31 39 -40 0
31 -39 -40 0
-31 -39 40 0
31 39 40 0
-41 34 0
-41 -34 0
-9 -41 -42 0
9 41 -42 0
-9 41 42 0
9 -41 42 0
43 -40 0
43 -42 0
40 42 -43 0
-44 -30 0
-44 43 0
30 -43 44 0
-45 -34 0
-45 17 0
34 -17 45 0
-46 4 0
-46 10 0
-4 -10 46 0
47 19 0
47 46 0
-19 -46 -47 0
48 -18 0
48 -18 0
18 -48 0
49 -47 0
49 48 0
47 -48 -49 0
-50 6 0
-50 9 0
-6 -9 50 0
-51 -49 0
-51 50 0
49 -50 51 0
52 45 0
52 51 0
-45 -51 -52 0
54 -53 0
54 27 0
53 -27 -54 0
55 18 0
55 10 0
-18 -10 -55 0
-56 54 0
-56 -55 0
-54 55 56 0
57 -52 0
57 -56 0
52 56 -57 0
6 12 -58 0
-6 -12 -58 0
6 -12 58 0
-6 12 58 0
59 57 0
59 58 0
-57 -58 -59 0
60 44 0
60 59 0
-44 -59 -60 0
-27 60 0
-4 28 33 42 5 15 0
-32 19 -56 -18 60 0
58 5 19 44 16 0
8 1 6 0
-36 -22 -1 41 -35 14 0
-10 24 4 8 0
41 27 42 -19 0
-4 -16 59 0
45 46 -16 0
14 47 15 0
-16 -55 0
-23 -55 0
41 8 32 -37 0
38 9 44 4 26 0
26 45 41 -51 12 0
-55 -40 10 -25 -30 0
34 11 53 0
37 -17 -59 -25 0
-48 34 43 -4 0
-4 10 2 0
-33 -39 -9 43 42 0
-59 30 6 3 -52 0
-44 11 -20 33 -17 -43 0
-51 36 0
34 46 0
17 13 5 -33 -16 0
-24 -46 -10 -37 48 0
56 23 -27 43 36 0
-2 1 0
40 -30 0
-56 16 -26 -35 0
-60 -24 -37 47 2 -54 0
40 -41 -48 0
-40 -5 -50 -59 0
-49 22 12 -25 0
-29 12 -46 0
-5 50 -45 -28 0
17 -51 -27 -12 0
-33 28 0
32 24 -34 26 0
-57 4 40 0
33 5 27 -48 0
-11 29 24 0
-10 30 -39 -28 0
-6 -50 0
-30 -51 -24 -35 0
60 0
